SPARKNaCl/why3-cvc5/sparknacl-hashing-rfsb509.adb_94_13_range_check7_1.smt2
;; produced by cvc5.drv ;;
(set-logic ALL)
(set-info :smt-lib-version 2.6)
;;; generated by SMT-LIB2 driver
;;; SMT-LIB2 driver: bit-vectors, common part
;;; SMT-LIB2: integer arithmetic
;; "pow2"
(declare-fun pow2 (Int) Int)

(declare-const two_power_size_minus_one Int)

;; "two_power_size_minus_one_val"
(assert (= two_power_size_minus_one (pow2 (- 8 1))))

;; "min"
(define-fun min ((x Int) (y Int)) Int
  (ite (<= x y) x y))

;; "max"
(define-fun max ((x Int) (y Int)) Int
  (ite (<= x y) y x))

;; "Min_r"
(assert (forall ((x Int) (y Int)) (=> (<= y x) (= (min x y) y))))

;; "Max_l"
(assert (forall ((x Int) (y Int)) (=> (<= y x) (= (max x y) x))))

;; "Min_comm"
(assert (forall ((x Int) (y Int)) (= (min x y) (min y x))))

;; "Max_comm"
(assert (forall ((x Int) (y Int)) (= (max x y) (max y x))))

;; "Min_assoc"
(assert
  (forall ((x Int) (y Int) (z Int)) (= (min (min x y) z) (min x (min y z)))))

;; "Max_assoc"
(assert
  (forall ((x Int) (y Int) (z Int)) (= (max (max x y) z) (max x (max y z)))))

(declare-sort byte 0)

(declare-datatypes ((byte__init_wrapper 0))
  (((byte__init_wrapperqtmk (rec__value byte)(us_attr__init Bool)))))

(declare-sort map1 0)

;; "has_bounds"
(declare-fun has_bounds (map1
  Int
  Int) Bool)

;; "get"
(declare-fun get (map1
  Int) byte__init_wrapper)

;; "slide"
(declare-fun slide (map1
  Int
  Int) map1)

;; "slide_eq"
(assert
  (forall ((a map1) (first Int))
    (! (= (slide a first first) a) :pattern ((slide a first first)) )))

;; "slide_def"
(assert
  (forall ((a map1) (old_first Int) (new_first Int))
    (! (and
         (forall ((i Int))
           (! (= (get (slide a old_first new_first) i) (get
                                                         a
                                                         (- i (- new_first old_first)))) :pattern (
           (get
             (slide a old_first new_first)
             i)) ))
         (forall ((new_last Int))
           (! (=>
                (has_bounds a old_first (- new_last (- new_first old_first)))
                (has_bounds (slide a old_first new_first) new_first new_last)) :pattern (
           (has_bounds
             (slide a old_first new_first)
             new_first
             new_last)) ))) :pattern ((slide a old_first new_first)) )))

;; "slice"
(declare-fun slice (map1
  Int
  Int) map1)

;; "slice_eq"
(assert
  (forall ((a map1) (f Int) (l Int))
    (! (=> (has_bounds a f l) (= (slice a f l) a)) :pattern ((slice a f l)
    (has_bounds a f l)) )))

;; "slice_slice"
(assert
  (forall ((a map1) (f1 Int) (l1 Int) (f2 Int) (l2 Int))
    (! (=>
         (and (<= f1 f2) (<= l2 l1))
         (= (slice (slice a f1 l1) f2 l2) (slice a f2 l2))) :pattern (
    (slice
      (slice a f1 l1)
      f2
      l2)) )))

;; "slice_def"
(assert
  (forall ((a map1) (f Int) (l Int))
    (! (forall ((i Int))
         (! (=> (and (<= f i) (<= i l)) (= (get (slice a f l) i) (get a i))) :pattern (
         (get
           (slice a f l)
           i)) :pattern ((get a i)) )) :pattern ((slice a f l)) )))

;; "slice_has_bounds"
(assert
  (forall ((a map1) (f Int) (l Int))
    (! (has_bounds (slice a f l) f l) :pattern ((has_bounds
                                                  (slice a f l)
                                                  f
                                                  l)) )))

(declare-const word (_ BitVec 8))

(declare-const five_lsb_mask (_ BitVec 8))

;; "to_rep"
(declare-fun to_rep (byte) (_ BitVec 8))

;; "of_rep"
(declare-fun of_rep ((_ BitVec 8)) byte)

;; "inversion_axiom"
(assert
  (forall ((x byte)) (! (= (of_rep (to_rep x)) x) :pattern ((to_rep x)) )))

;; "range_axiom"
(assert true)

;; "coerce_axiom"
(assert
  (forall ((x (_ BitVec 8)))
    (! (= (to_rep (of_rep x)) x) :pattern ((to_rep (of_rep x))) )))

(declare-sort map2 0)

;; "has_bounds"
(declare-fun has_bounds1 (map2
  Int
  Int) Bool)

;; "get"
(declare-fun get1 (map2
  Int) byte)

;; "set"
(declare-fun set (map2
  Int
  byte) map2)

;; "set_eq"
(assert
  (forall ((a map2) (i Int) (v byte))
    (! (= (get1 (set a i v) i) v) :pattern ((set a i v)) )))

;; "set_neq"
(assert
  (forall ((a map2) (i Int) (v byte))
    (! (forall ((j Int))
         (! (=> (not (= i j)) (= (get1 (set a i v) j) (get1 a j))) :pattern (
         (get1
           a
           j)) :pattern ((get1 (set a i v) j)) )) :pattern ((set a i v)) )))

;; "set_has_bounds"
(assert
  (forall ((a map2) (i Int) (f Int) (l Int) (v byte))
    (! (=>
         (and (<= f i) (<= i l))
         (=> (has_bounds1 a f l) (has_bounds1 (set a i v) f l))) :pattern (
    (has_bounds1
      (set a i v)
      f
      l)) )))

;; "slide"
(declare-fun slide1 (map2
  Int
  Int) map2)

;; "slide_eq"
(assert
  (forall ((a map2) (first Int))
    (! (= (slide1 a first first) a) :pattern ((slide1 a first first)) )))

;; "slide_def"
(assert
  (forall ((a map2) (old_first Int) (new_first Int))
    (! (and
         (forall ((i Int))
           (! (= (get1 (slide1 a old_first new_first) i) (get1
                                                           a
                                                           (- i (- new_first old_first)))) :pattern (
           (get1
             (slide1 a old_first new_first)
             i)) ))
         (forall ((new_last Int))
           (! (=>
                (has_bounds1
                  a
                  old_first
                  (- new_last (- new_first old_first)))
                (has_bounds1
                  (slide1 a old_first new_first)
                  new_first
                  new_last)) :pattern ((has_bounds1
                                         (slide1 a old_first new_first)
                                         new_first
                                         new_last)) ))) :pattern ((slide1
                                                                    a
                                                                    old_first
                                                                    new_first)) )))

;; "convert"
(declare-fun convert (map1) map2)

;; "convert__def"
(assert
  (forall ((a map1))
    (forall ((temp___169 Int))
      (= (to_rep (of_rep (to_rep (rec__value (get a temp___169))))) (to_rep
                                                                    (get1
                                                                    (convert
                                                                    a)
                                                                    temp___169))))))

;; "convert"
(declare-fun convert1 (map2) map1)

;; "convert__def"
(assert
  (forall ((a map2))
    (let ((b (convert1 a)))
      (forall ((temp___170 Int))
        (and
          (= (us_attr__init
               (byte__init_wrapperqtmk
                 (of_rep (to_rep (get1 a temp___170)))
                 true)) (us_attr__init (get b temp___170)))
          (= (to_rep
               (rec__value
                 (byte__init_wrapperqtmk
                   (of_rep (to_rep (get1 a temp___170)))
                   true))) (to_rep (rec__value (get b temp___170)))))))))

(declare-sort tinteger_32B 0)

;; "tinteger_32B'int"
(declare-fun tinteger_32Bqtint (tinteger_32B) Int)

;; "tinteger_32B'axiom"
(assert
  (forall ((i tinteger_32B))
    (and
      (<= (- 2147483648) (tinteger_32Bqtint i))
      (<= (tinteger_32Bqtint i) 2147483647))))

;; "in_range"
(define-fun in_range ((x Int)) Bool
  (and (<= (- 2147483648) x) (<= x 2147483647)))

;; "to_rep"
(define-fun to_rep1 ((x tinteger_32B)) Int
  (tinteger_32Bqtint x))

;; "of_rep"
(declare-fun of_rep1 (Int) tinteger_32B)

;; "inversion_axiom"
(assert
  (forall ((x tinteger_32B))
    (! (= (of_rep1 (to_rep1 x)) x) :pattern ((to_rep1 x)) )))

;; "range_axiom"
(assert
  (forall ((x tinteger_32B))
    (! (in_range (to_rep1 x)) :pattern ((to_rep1 x)) )))

;; "coerce_axiom"
(assert
  (forall ((x Int))
    (! (=> (in_range x) (= (to_rep1 (of_rep1 x)) x)) :pattern ((to_rep1
                                                                 (of_rep1 x))) )))

(declare-datatypes ((t 0))
  (((tqtmk (rec__first tinteger_32B)(rec__last tinteger_32B)))))

;; "mk"
(declare-fun mk (Int
  Int) t)

;; "mk_def"
(assert
  (forall ((f Int) (l Int))
    (! (=>
         (in_range f)
         (=>
           (in_range l)
           (and
             (= (to_rep1 (rec__first (mk f l))) f)
             (= (to_rep1 (rec__last (mk f l))) l)))) :pattern ((mk f l)) )))

(declare-datatypes ((us_t 0))
  (((us_tqtmk (elts map1)(rt t)))))

;; "to_array"
(define-fun to_array ((a us_t)) map1
  (elts a))

;; "of_array"
(define-fun of_array ((a map1) (f Int) (l Int)) us_t
  (us_tqtmk a (mk f l)))

;; "first"
(define-fun first ((a us_t)) Int
  (to_rep1 (rec__first (rt a))))

;; "last"
(define-fun last ((a us_t)) Int
  (to_rep1 (rec__last (rt a))))

;; "ada___ada___sparknacl__hashing__rfsb509__calculate_column__cipher_input__aggregate_def"
(declare-fun ada___ada___sparknacl__hashing__rfsb509__calculate_column__cipher_input__aggregate_def ((_ BitVec 8)) map2)

;; Goal "def'vc"
;; File "sparknacl-hashing-rfsb509.adb", line 37, characters 0-0
(assert
  (not true))

(check-sat)
